models/wheel.smt2
(declare-const c1_0 Real)
(declare-const c2_0 Real)
(declare-const c3_0 Real)
(declare-const c4_0 Real)
(declare-const c5_0 Real)
(declare-const c6_0 Real)
(declare-const c7_0 Real)
(declare-const c8_0 Real)
(declare-const c9_0 Real)
(declare-const c10_0 Real)
(declare-const c11_0 Real)
(declare-const c12_0 Real)
(declare-const c13_0 Real)
(declare-const SLIP_ABS_ON Real)
(declare-const R Real)
(declare-const PI Real)

(assert (= PI 3.14))
(assert (= R 0.5))
(assert (= SLIP_ABS_ON 0.1))

(assert (not (> (* c5_0 0.9) c4_0)))

(assert (and (> c3_0 0) (> c2_0 0)))

(assert (> c1_0 0))

(assert (= c4_0 (* (/ (* R PI) 30) c3_0)))
(assert (= c5_0 (* (/ 10 36) c2_0)))
(assert (= c6_0 (- c5_0 c4_0)))
(assert (and (=> (<= c6_0 0) (= c7_0 0)) (=> (and (> c6_0 0) (< c6_0 10000000)) (= c7_0 c6_0)) (=> (>= c6_0 10000000) (= c7_0 10000000))))
(assert (= c8_0 (* 10 c7_0)))
(assert (= c9_0 (* (* 10 SLIP_ABS_ON) c5_0)))
(assert (ite (> c8_0 c9_0) (= c10_0 1) (= c10_0 0)))
(assert (= c11_0 0))
(assert (ite (> c10_0 0) (= c12_0 c11_0) (= c12_0 c1_0)))
(assert (ite (> c2_0 10) (= c13_0 c12_0) (= c13_0 c1_0)))

(assert (= c12_0 0))
